c A SAT instance generated from a 3-CNF formula that had 20 clauses and 10 variables
p cnf 10 20
-4 -10 -9 0
-8 -4 -9 0
-6 8 -4 0
2 -6 7 0
-1 -2 -3 0
-8 -10 -7 0
10 -5 2 0
-9 -4 -10 0
3 -2 1 0
6 -7 2 0
1 -4 7 0
-3 4 2 0
-1 10 3 0
4 -1 8 0
9 -1 -2 0
4 -10 9 0
6 10 7 0
-8 -1 6 0
9 -3 2 0
8 -3 -2 0
